sing20130916.00
TTAA  66001 48698
99006 26040 01001 00068 26633 00000 92753 23057 13016
85488 19658 23006 70134 09435 28013 50585 06302 22505
40756 16712 15505 30966 30550 08021 25093 41150 08535
20241 53356 07049 15420 67950 06073 10656 73550 10027
88999
77121 08085 42458=
TTCC  6600/ 48698=
TTDD  6600/ 48698
11988 73950 22978 74150 33970 74350 44922 73750 55859
74749 66840 74357
21212 11971 11520 22948 15517 33927 19013 44908 21015
55889 22514 66873 24010 77859 24003 88840 33502=
